(set-logic ALL)
(set-option :produce-models true)
(declare-sort BoundSet 0)
(declare-sort UnboundSet 0)
(declare-fun IsArrogant (BoundSet) Bool)
(declare-fun IsZealous (BoundSet) Bool)
(declare-fun ( (Bool) Bool)
(declare-fun IsReligion (BoundSet) Bool)
(assert (not (=> (exists ((a BoundSet)) (exists ((d BoundSet)) (( (and (IsArrogant a) (IsZealous d))))) (exists ((f BoundSet)) (IsReligion f)))))
(check-sat)
(get-model)